NAME: instance_3073
TYPE: TSP
DIMENSION: 20
EDGE_WEIGHT_TYPE: EUC_2D
NODE_COORD_SECTION
0 77.93 64.15
1 29.15 10.17
2 18.56 62.99
3 79.15 28.61
4 67.48 4.46
5 60.80 2.59
6 88.77 81.10
7 73.17 85.43
8 44.68 2.60
9 60.06 86.02
10 18.88 92.04
11 38.15 30.17
12 57.87 92.80
13 6.38 57.01
14 82.00 76.83
15 35.44 15.13
16 80.76 16.19
17 43.86 53.52
18 15.68 15.76
19 28.98 9.74
EOF
